50
    81    61    83     1    91    68    70    36    67    95    42     4    40    92    24    12    53    46     7    57    67    89    45    26    59    90    61    98    18    61    39    41    53    52    35    15    86    58    64    70    56     9    11    47    16    80    26    77    37    85
     7     3     4     5     1    10     5     7     9     9    10     1     4     2    10     8     1     5     5     4     2     4     3     4     3     8     6    10     4    10     2     9     1     3    10     9     4     2     8     3     6     5     4    10     9     4     8     8     5     9
  1933  2068  2245  1926  1835  1931  2230  2113  2241  2018  2207  2043  1900  2125  2116  1878  2077  1888  2122  2002  2291  1995  2108  2024  2020  2027  1958  2129  2138  2200  2084  2089  1954  2243  2153  2086  2206  2091  2133  2247  2101  2332  2059  1908  2307  2299  2039  2263  1989  2074
